756.76 0
0 40 9 39 72 31 10 38 58 0
0 1 43 42 64 41 56 23 63 16 51 0
0 12 32 50 25 55 18 24 49 3 44 17 0
0 30 21 69 71 60 70 20 37 36 47 48 0
0 26 7 35 19 54 13 57 15 5 29 45 0
0 67 34 46 52 27 4 75 0
0 68 2 74 28 61 22 62 73 33 6 0
0 8 14 59 66 65 11 53 0
